FEATURES = {privateProjects, realTimeCollaboration, templates, latexEditor, latexCompilation, realTimeTrackChanges, fullDocumentHistory, advancedReferenceSearch, referenceManagerSync, dropboxIntegration, gitIntegration, githubIntegration, prioritySupport};
USAGE_LIMITS = {maxCollaboratorsPerProject, compileTimeoutLimit};
PLANS = {FREE, PERSONAL, STANDARD, PROFESSIONAL};
ADDONS = {};

plans_prices = [0.0,15.0,23.0,45.0];
addons_prices = [];

plans_features = array2d(PLANS, FEATURES, [
    % FREE
    1, 1, 1, 1, 1, 0, 0, 0, 0, 0, 0, 0, 0,
    % PERSONAL
    1, 1, 1, 1, 1, 0, 1, 1, 1, 1, 1, 1, 1,
    % STANDARD
    1, 1, 1, 1, 1, 1, 1, 1, 1, 1, 1, 1, 1,
    % PROFESSIONAL
    1, 1, 1, 1, 1, 1, 1, 1, 1, 1, 1, 1, 1
]);
plans_usage_limits = array2d(PLANS, USAGE_LIMITS, [
    % FREE
    1,1,
    % PERSONAL
    1,4,
    % STANDARD
    10,4,
    % PROFESSIONAL
    inf,4
]);

linked_features = array2d(USAGE_LIMITS, FEATURES, [
    % maxCollaboratorsPerProject
    0,1,0,0,0,0,0,0,0,0,0,0,0,
    % compileTimeoutLimit
    0,0,0,0,1,0,0,0,0,0,0,0,0
]);

addons_features = array2d(ADDONS, FEATURES, [
]);
addons_usage_limits = array2d(ADDONS, USAGE_LIMITS, [
]);
addons_usage_limits_extensions = array2d(ADDONS, USAGE_LIMITS, [
]);
addons_available_for = array2d(ADDONS, PLANS, [
]);

addons_depends_on = array2d(ADDONS, ADDONS, [
]);